(declare-sort $$unsorted 0)
(declare-fun tptp.op ($$unsorted $$unsorted) $$unsorted)
(assert (forall ((X0 $$unsorted) (X1 $$unsorted) (X2 $$unsorted)) (= X0 (tptp.op X1 (tptp.op X0 (tptp.op X2 (tptp.op X1 X0)))))))
(assert (not (forall ((X0 $$unsorted) (X1 $$unsorted) (X2 $$unsorted)) (= X0 (tptp.op X1 (tptp.op X0 (tptp.op X0 (tptp.op X0 X0))))))))
(set-info :filename Equation487_implies_Equation463)
(check-sat-assuming ( true ))
